#=======================================================
# FHI-aims file: geometry.in.primitive.supercell_32.0010K
# Created using the Atomic Simulation Environment (ASE)
# Wed Feb  8 12:53:39 2023

# Additional information:
#  created from MB distrubtion
#  T = 10.0 K
#  quantum:             False
#  deterministic:       False
#  plus_minus:          False
#  gauge_eigenvectors:  False
#  Random seed:         1370305938
#  Sample number:       1
#=======================================================
lattice_vector 11.6345258548870181 0.0000000000000000 0.0000000000000000 
lattice_vector 0.0000000000000000 8.3913390509640404 0.0000000000000000 
lattice_vector 0.0000000000000000 0.0000000000000000 8.8084430499340201 
atom 9.9860094894972455 3.1467521441115140 0.1447889795856728 Se
    velocity -0.2238001771671259 -0.3341046508408707 0.6555826213190906
atom 9.9860094894972455 7.3424216695935351 0.1447889795856728 Se
    velocity 0.0060788613975285 0.4200933037092955 -0.0324313796063308
atom 9.9860094894972455 3.1467521441115140 4.5490105045526832 Se
    velocity -0.0204479825907804 0.3105332814319163 0.5267592086490680
atom 9.9860094894972455 7.3424216695935351 4.5490105045526832 Se
    velocity 0.5012931115420487 -0.4612996680488063 -0.0644244689579280
atom 1.6485163653897725 1.0489173813705051 4.2594325453813413 Se
    velocity -0.0157031821275179 0.4872367871468519 0.2750829409956498
atom 1.6485163653897725 5.2445869068525255 4.2594325453813413 Se
    velocity -0.2083949614359259 0.2316253107608826 -0.0752761025365712
atom 1.6485163653897725 1.0489173813705051 8.6636540703483504 Se
    velocity 0.4657068031170585 -0.7628169839936956 0.1234748755858189
atom 1.6485163653897725 5.2445869068525255 8.6636540703483504 Se
    velocity -0.3266395615836399 -0.1141642640219003 -0.0605721982160759
atom 7.4657792928332807 1.0489173813705051 2.3468997420691751 Se
    velocity -0.1282149237375622 -0.0195946795513245 0.2482998636399627
atom 7.4657792928332807 5.2445869068525255 2.3468997420691751 Se
    velocity 0.1912197144918982 0.3682207085096624 0.1168006980719601
atom 7.4657792928332807 1.0489173813705051 6.7511212670361855 Se
    velocity 0.0338469899758139 -0.4637583646757145 0.1704775472733376
atom 7.4657792928332807 5.2445869068525255 6.7511212670361855 Se
    velocity 0.2060300859248191 -0.0316483622082230 0.4582224049033841
atom 4.1687465620537347 3.1467521441115140 2.0573217828978350 Se
    velocity -0.6167471671277639 -0.1421113928536795 -0.5165565967813690
atom 4.1687465620537347 7.3424216695935351 2.0573217828978350 Se
    velocity 0.0869429195136638 0.1323003526673936 0.0537748926608339
atom 4.1687465620537347 3.1467521441115140 6.4615433078648445 Se
    velocity 0.0148796223870922 -0.2846930362957872 0.0396465117826761
atom 4.1687465620537347 7.3424216695935351 6.4615433078648445 Se
    velocity -0.1866588610315687 -0.5615839897519351 0.1073387281469664
atom 1.3954671058260488 3.1467521441115140 1.7527764623357616 Sn
    velocity 0.4780580624032223 0.1833247960215629 -0.2611129582774940
atom 1.3954671058260488 7.3424216695935351 1.7527764623357616 Sn
    velocity -0.3481777120611981 0.1177362486337410 0.2017683449913766
atom 1.3954671058260488 3.1467521441115140 6.1569979873027725 Sn
    velocity 0.6067464635290015 -0.1631907404871489 -0.0353022941997889
atom 1.3954671058260488 7.3424216695935351 6.1569979873027725 Sn
    velocity 0.1905745499273919 0.4162742612736519 -0.2315177796868871
atom 10.2390587490609892 1.0489173813705051 2.6514450626312485 Sn
    velocity -0.2950071519620744 -0.3422760612794555 -0.3520073974437840
atom 10.2390587490609892 5.2445869068525255 2.6514450626312485 Sn
    velocity -0.3330338797173052 0.0562181105192051 -0.0189224239364766
atom 10.2390587490609892 1.0489173813705051 7.0556665875982576 Sn
    velocity -0.0433733677789587 0.0195452244597041 0.1862147278817839
atom 10.2390587490609892 5.2445869068525255 7.0556665875982576 Sn
    velocity 0.1360182259215938 0.0536973201298832 -0.3284766653981142
atom 4.4217958216174589 1.0489173813705051 3.9548872248192675 Sn
    velocity 0.0966777681735470 -0.0917248707230090 -0.4062997916312288
atom 4.4217958216174589 5.2445869068525255 3.9548872248192675 Sn
    velocity 0.0046502519363035 0.4772664365424305 0.2498821876680161
atom 4.4217958216174589 1.0489173813705051 8.3591087497862766 Sn
    velocity -0.5440878195421496 0.0065327069779302 -0.0026696888065084
atom 4.4217958216174589 5.2445869068525255 8.3591087497862766 Sn
    velocity 0.0854902252633847 -0.0191828972031896 -0.1202951780819416
atom 7.2127300332695565 3.1467521441115140 0.4493343001477477 Sn
    velocity -0.2488622837457740 -0.5509459602061092 -0.3397759620140885
atom 7.2127300332695565 7.3424216695935351 0.4493343001477477 Sn
    velocity 0.0662378460327922 0.0522758517057606 -0.2777301177358808
atom 7.2127300332695565 3.1467521441115140 4.8535558251147570 Sn
    velocity 0.0893691652966010 0.2029598683060246 0.0706670872905569
atom 7.2127300332695565 7.3424216695935351 4.8535558251147570 Sn
    velocity 0.2054780618089211 0.3969217581423140 0.3176627849541566
