lattice_vector 0.0000000000000000 2.6299999999999999 2.6299999999999999
lattice_vector 2.6299999999999999 0.0000000000000000 2.6299999999999999
lattice_vector 2.6299999999999999 2.6299999999999999 0.0000000000000000
atom 0.0000000000000000 0.0000000000000000 0.0000000000000000 Ar