#=======================================================
# FHI-aims file: geometry.in.primitive.supercell_550
# Created using the Atomic Simulation Environment (ASE)
# Mon Feb  6 15:33:19 2023

# Additional information:
#  Number of atoms:     550
#  Spacegroup:          225
#  supercell:           True
#  supercell_matrix:    [-5, 5, 5, 5, -6, 6, 5, 5, -5]
#  Supercell matrix:    [-5  5  5  5 -6  6  5  5 -5]
#=======================================================
lattice_vector 26.2999999999999972 0.0000000000000000 0.0000000000000000 
lattice_vector 0.0000000000000000 28.9299999999999997 -2.6300000000000008 
lattice_vector 0.0000000000000000 0.0000000000000000 26.2999999999999972 
atom_frac 0.0000000000000000 0.0000000000000000 0.0000000000000000 Ar
atom_frac 0.0000000000000000 0.0909090909090909 0.1090909090909091 Ar
atom_frac 0.0000000000000000 0.1818181818181818 0.2181818181818183 Ar
atom_frac 0.0000000000000000 0.2727272727272728 0.3272727272727273 Ar
atom_frac 0.0000000000000000 0.3636363636363636 0.4363636363636365 Ar
atom_frac 0.0000000000000000 0.4545454545454546 0.5454545454545454 Ar
atom_frac 0.0000000000000000 0.5454545454545455 0.6545454545454547 Ar
atom_frac 0.0000000000000000 0.6363636363636365 0.7636363636363637 Ar
atom_frac 0.0000000000000000 0.7272727272727273 0.8727272727272730 Ar
atom_frac 0.0000000000000000 0.8181818181818182 0.9818181818181818 Ar
atom_frac 0.0000000000000000 0.9090909090909092 0.0909090909090908 Ar
atom_frac 0.0000000000000000 0.0000000000000000 0.2000000000000000 Ar
atom_frac 0.0000000000000000 0.0909090909090910 0.3090909090909094 Ar
atom_frac 0.0000000000000000 0.1818181818181819 0.4181818181818183 Ar
atom_frac 0.0000000000000000 0.2727272727272729 0.5272727272727273 Ar
atom_frac 0.1000000000000000 0.0000000000000000 0.1000000000000000 Ar
atom_frac 0.1000000000000000 0.0909090909090909 0.2090909090909092 Ar
atom_frac 0.1000000000000000 0.1818181818181818 0.3181818181818183 Ar
atom_frac 0.1000000000000000 0.2727272727272728 0.4272727272727274 Ar
atom_frac 0.1000000000000000 0.3636363636363636 0.5363636363636364 Ar
atom_frac 0.1000000000000000 0.4545454545454546 0.6454545454545456 Ar
atom_frac 0.1000000000000000 0.5454545454545455 0.7545454545454546 Ar
atom_frac 0.1000000000000000 0.6363636363636365 0.8636363636363636 Ar
atom_frac 0.1000000000000000 0.7272727272727273 0.9727272727272730 Ar
atom_frac 0.1000000000000000 0.8181818181818182 0.0818181818181818 Ar
atom_frac 0.1000000000000000 0.9090909090909092 0.1909090909090909 Ar
atom_frac 0.1000000000000000 0.0000000000000000 0.3000000000000000 Ar
atom_frac 0.1000000000000000 0.0909090909090911 0.4090909090909095 Ar
atom_frac 0.1000000000000000 0.1818181818181819 0.5181818181818183 Ar
atom_frac 0.1000000000000000 0.2727272727272729 0.6272727272727274 Ar
atom_frac 0.2000000000000000 0.0000000000000000 0.2000000000000000 Ar
atom_frac 0.2000000000000000 0.0909090909090909 0.3090909090909091 Ar
atom_frac 0.2000000000000000 0.1818181818181819 0.4181818181818183 Ar
atom_frac 0.2000000000000000 0.2727272727272728 0.5272727272727273 Ar
atom_frac 0.2000000000000000 0.3636363636363636 0.6363636363636366 Ar
atom_frac 0.2000000000000000 0.4545454545454546 0.7454545454545455 Ar
atom_frac 0.2000000000000000 0.5454545454545455 0.8545454545454547 Ar
atom_frac 0.2000000000000000 0.6363636363636365 0.9636363636363636 Ar
atom_frac 0.2000000000000000 0.7272727272727273 0.0727272727272728 Ar
atom_frac 0.2000000000000000 0.8181818181818182 0.1818181818181819 Ar
atom_frac 0.2000000000000000 0.9090909090909092 0.2909090909090908 Ar
atom_frac 0.2000000000000000 0.0000000000000000 0.3999999999999999 Ar
atom_frac 0.2000000000000000 0.0909090909090911 0.5090909090909093 Ar
atom_frac 0.2000000000000000 0.1818181818181819 0.6181818181818182 Ar
atom_frac 0.2000000000000000 0.2727272727272729 0.7272727272727273 Ar
atom_frac 0.3000000000000000 0.0000000000000000 0.3000000000000000 Ar
atom_frac 0.3000000000000000 0.0909090909090909 0.4090909090909091 Ar
atom_frac 0.3000000000000000 0.1818181818181818 0.5181818181818182 Ar
atom_frac 0.3000000000000000 0.2727272727272728 0.6272727272727273 Ar
atom_frac 0.3000000000000000 0.3636363636363636 0.7363636363636367 Ar
atom_frac 0.3000000000000000 0.4545454545454546 0.8454545454545456 Ar
atom_frac 0.3000000000000000 0.5454545454545455 0.9545454545454547 Ar
atom_frac 0.3000000000000000 0.6363636363636365 0.0636363636363637 Ar
atom_frac 0.3000000000000000 0.7272727272727273 0.1727272727272729 Ar
atom_frac 0.3000000000000000 0.8181818181818182 0.2818181818181818 Ar
atom_frac 0.3000000000000000 0.9090909090909092 0.3909090909090909 Ar
atom_frac 0.3000000000000000 0.0000000000000000 0.5000000000000000 Ar
atom_frac 0.3000000000000000 0.0909090909090911 0.6090909090909093 Ar
atom_frac 0.3000000000000000 0.1818181818181819 0.7181818181818183 Ar
atom_frac 0.3000000000000000 0.2727272727272729 0.8272727272727274 Ar
atom_frac 0.4000000000000000 0.0000000000000000 0.4000000000000000 Ar
atom_frac 0.4000000000000000 0.0909090909090909 0.5090909090909091 Ar
atom_frac 0.4000000000000000 0.1818181818181818 0.6181818181818182 Ar
atom_frac 0.4000000000000000 0.2727272727272728 0.7272727272727274 Ar
atom_frac 0.4000000000000000 0.3636363636363637 0.8363636363636366 Ar
atom_frac 0.4000000000000000 0.4545454545454546 0.9454545454545455 Ar
atom_frac 0.4000000000000000 0.5454545454545455 0.0545454545454547 Ar
atom_frac 0.4000000000000000 0.6363636363636365 0.1636363636363636 Ar
atom_frac 0.4000000000000000 0.7272727272727273 0.2727272727272729 Ar
atom_frac 0.4000000000000000 0.8181818181818182 0.3818181818181818 Ar
atom_frac 0.4000000000000000 0.9090909090909092 0.4909090909090909 Ar
atom_frac 0.4000000000000000 0.0000000000000000 0.6000000000000001 Ar
atom_frac 0.4000000000000000 0.0909090909090911 0.7090909090909094 Ar
atom_frac 0.4000000000000000 0.1818181818181819 0.8181818181818185 Ar
atom_frac 0.4000000000000000 0.2727272727272729 0.9272727272727274 Ar
atom_frac 0.5000000000000000 0.0000000000000000 0.5000000000000000 Ar
atom_frac 0.5000000000000000 0.0909090909090909 0.6090909090909093 Ar
atom_frac 0.5000000000000000 0.1818181818181818 0.7181818181818183 Ar
atom_frac 0.5000000000000000 0.2727272727272728 0.8272727272727274 Ar
atom_frac 0.5000000000000000 0.3636363636363637 0.9363636363636366 Ar
atom_frac 0.5000000000000000 0.4545454545454546 0.0454545454545454 Ar
atom_frac 0.5000000000000000 0.5454545454545455 0.1545454545454548 Ar
atom_frac 0.5000000000000000 0.6363636363636365 0.2636363636363637 Ar
atom_frac 0.5000000000000000 0.7272727272727273 0.3727272727272729 Ar
atom_frac 0.5000000000000000 0.8181818181818182 0.4818181818181820 Ar
atom_frac 0.5000000000000000 0.9090909090909093 0.5909090909090908 Ar
atom_frac 0.5000000000000000 0.0000000000000000 0.7000000000000000 Ar
atom_frac 0.5000000000000000 0.0909090909090910 0.8090909090909093 Ar
atom_frac 0.5000000000000000 0.1818181818181819 0.9181818181818183 Ar
atom_frac 0.5000000000000000 0.2727272727272729 0.0272727272727274 Ar
atom_frac 0.6000000000000001 0.0000000000000000 0.6000000000000001 Ar
atom_frac 0.6000000000000001 0.0909090909090909 0.7090909090909092 Ar
atom_frac 0.6000000000000001 0.1818181818181818 0.8181818181818182 Ar
atom_frac 0.6000000000000001 0.2727272727272728 0.9272727272727274 Ar
atom_frac 0.6000000000000001 0.3636363636363637 0.0363636363636364 Ar
atom_frac 0.6000000000000001 0.4545454545454546 0.1454545454545455 Ar
atom_frac 0.6000000000000001 0.5454545454545455 0.2545454545454547 Ar
atom_frac 0.6000000000000001 0.6363636363636365 0.3636363636363638 Ar
atom_frac 0.6000000000000001 0.7272727272727273 0.4727272727272729 Ar
atom_frac 0.6000000000000001 0.8181818181818182 0.5818181818181818 Ar
atom_frac 0.6000000000000001 0.9090909090909093 0.6909090909090909 Ar
atom_frac 0.6000000000000001 0.0000000000000000 0.8000000000000000 Ar
atom_frac 0.6000000000000001 0.0909090909090911 0.9090909090909094 Ar
atom_frac 0.6000000000000001 0.1818181818181819 0.0181818181818181 Ar
atom_frac 0.6000000000000001 0.2727272727272729 0.1272727272727275 Ar
atom_frac 0.7000000000000001 0.0000000000000000 0.7000000000000001 Ar
atom_frac 0.7000000000000001 0.0909090909090909 0.8090909090909092 Ar
atom_frac 0.7000000000000001 0.1818181818181818 0.9181818181818182 Ar
atom_frac 0.7000000000000001 0.2727272727272728 0.0272727272727274 Ar
atom_frac 0.7000000000000001 0.3636363636363637 0.1363636363636365 Ar
atom_frac 0.7000000000000001 0.4545454545454546 0.2454545454545455 Ar
atom_frac 0.7000000000000001 0.5454545454545455 0.3545454545454547 Ar
atom_frac 0.7000000000000001 0.6363636363636365 0.4636363636363636 Ar
atom_frac 0.7000000000000001 0.7272727272727274 0.5727272727272729 Ar
atom_frac 0.7000000000000001 0.8181818181818182 0.6818181818181820 Ar
atom_frac 0.7000000000000001 0.9090909090909093 0.7909090909090908 Ar
atom_frac 0.7000000000000001 0.0000000000000000 0.8999999999999999 Ar
atom_frac 0.7000000000000001 0.0909090909090911 0.0090909090909093 Ar
atom_frac 0.7000000000000001 0.1818181818181819 0.1181818181818182 Ar
atom_frac 0.7000000000000001 0.2727272727272730 0.2272727272727275 Ar
atom_frac 0.8000000000000000 0.0000000000000000 0.8000000000000000 Ar
atom_frac 0.8000000000000000 0.0909090909090909 0.9090909090909093 Ar
atom_frac 0.8000000000000000 0.1818181818181819 0.0181818181818183 Ar
atom_frac 0.8000000000000000 0.2727272727272728 0.1272727272727275 Ar
atom_frac 0.8000000000000000 0.3636363636363637 0.2363636363636364 Ar
atom_frac 0.8000000000000000 0.4545454545454546 0.3454545454545455 Ar
atom_frac 0.8000000000000000 0.5454545454545455 0.4545454545454547 Ar
atom_frac 0.8000000000000000 0.6363636363636365 0.5636363636363637 Ar
atom_frac 0.8000000000000000 0.7272727272727274 0.6727272727272730 Ar
atom_frac 0.8000000000000000 0.8181818181818182 0.7818181818181819 Ar
atom_frac 0.8000000000000000 0.9090909090909093 0.8909090909090909 Ar
atom_frac 0.8000000000000000 0.0000000000000000 0.0000000000000000 Ar
atom_frac 0.8000000000000000 0.0909090909090911 0.1090909090909094 Ar
atom_frac 0.8000000000000000 0.1818181818181819 0.2181818181818183 Ar
atom_frac 0.8000000000000000 0.2727272727272730 0.3272727272727273 Ar
atom_frac 0.9000000000000000 0.0000000000000000 0.9000000000000000 Ar
atom_frac 0.9000000000000000 0.0909090909090909 0.0090909090909093 Ar
atom_frac 0.9000000000000000 0.1818181818181819 0.1181818181818182 Ar
atom_frac 0.9000000000000000 0.2727272727272728 0.2272727272727273 Ar
atom_frac 0.9000000000000000 0.3636363636363637 0.3363636363636365 Ar
atom_frac 0.9000000000000000 0.4545454545454546 0.4454545454545455 Ar
atom_frac 0.9000000000000000 0.5454545454545455 0.5545454545454548 Ar
atom_frac 0.9000000000000000 0.6363636363636365 0.6636363636363638 Ar
atom_frac 0.9000000000000000 0.7272727272727274 0.7727272727272730 Ar
atom_frac 0.9000000000000000 0.8181818181818182 0.8818181818181819 Ar
atom_frac 0.9000000000000000 0.9090909090909093 0.9909090909090910 Ar
atom_frac 0.9000000000000000 0.0000000000000000 0.1000000000000001 Ar
atom_frac 0.9000000000000000 0.0909090909090911 0.2090909090909095 Ar
atom_frac 0.9000000000000000 0.1818181818181819 0.3181818181818184 Ar
atom_frac 0.9000000000000000 0.2727272727272730 0.4272727272727274 Ar
atom_frac 0.1000000000000000 0.0909090909090909 0.0090909090909091 Ar
atom_frac 0.1000000000000000 0.1818181818181818 0.1181818181818182 Ar
atom_frac 0.1000000000000000 0.2727272727272727 0.2272727272727273 Ar
atom_frac 0.1000000000000000 0.3636363636363636 0.3363636363636365 Ar
atom_frac 0.1000000000000000 0.4545454545454546 0.4454545454545455 Ar
atom_frac 0.1000000000000000 0.5454545454545455 0.5545454545454545 Ar
atom_frac 0.1000000000000000 0.6363636363636365 0.6636363636363637 Ar
atom_frac 0.1000000000000000 0.7272727272727274 0.7727272727272729 Ar
atom_frac 0.1000000000000000 0.8181818181818182 0.8818181818181819 Ar
atom_frac 0.1000000000000000 0.9090909090909092 0.9909090909090909 Ar
atom_frac 0.2000000000000000 0.0909090909090909 0.1090909090909091 Ar
atom_frac 0.2000000000000000 0.1818181818181819 0.2181818181818183 Ar
atom_frac 0.2000000000000000 0.2727272727272727 0.3272727272727273 Ar
atom_frac 0.2000000000000000 0.3636363636363636 0.4363636363636366 Ar
atom_frac 0.2000000000000000 0.4545454545454546 0.5454545454545454 Ar
atom_frac 0.2000000000000000 0.5454545454545455 0.6545454545454544 Ar
atom_frac 0.2000000000000000 0.6363636363636365 0.7636363636363637 Ar
atom_frac 0.2000000000000000 0.7272727272727274 0.8727272727272727 Ar
atom_frac 0.2000000000000000 0.8181818181818182 0.9818181818181819 Ar
atom_frac 0.2000000000000000 0.9090909090909092 0.0909090909090908 Ar
atom_frac 0.3000000000000000 0.0909090909090909 0.2090909090909092 Ar
atom_frac 0.3000000000000000 0.1818181818181819 0.3181818181818182 Ar
atom_frac 0.3000000000000000 0.2727272727272727 0.4272727272727273 Ar
atom_frac 0.3000000000000000 0.3636363636363636 0.5363636363636364 Ar
atom_frac 0.3000000000000000 0.4545454545454546 0.6454545454545456 Ar
atom_frac 0.3000000000000000 0.5454545454545455 0.7545454545454544 Ar
atom_frac 0.3000000000000000 0.6363636363636365 0.8636363636363638 Ar
atom_frac 0.3000000000000000 0.7272727272727274 0.9727272727272727 Ar
atom_frac 0.3000000000000000 0.8181818181818182 0.0818181818181818 Ar
atom_frac 0.3000000000000000 0.9090909090909092 0.1909090909090909 Ar
atom_frac 0.4000000000000000 0.0909090909090909 0.3090909090909091 Ar
atom_frac 0.4000000000000000 0.1818181818181819 0.4181818181818183 Ar
atom_frac 0.4000000000000000 0.2727272727272727 0.5272727272727272 Ar
atom_frac 0.4000000000000000 0.3636363636363637 0.6363636363636364 Ar
atom_frac 0.4000000000000000 0.4545454545454546 0.7454545454545456 Ar
atom_frac 0.4000000000000000 0.5454545454545455 0.8545454545454545 Ar
atom_frac 0.4000000000000000 0.6363636363636365 0.9636363636363637 Ar
atom_frac 0.4000000000000000 0.7272727272727274 0.0727272727272728 Ar
atom_frac 0.4000000000000000 0.8181818181818182 0.1818181818181819 Ar
atom_frac 0.4000000000000000 0.9090909090909092 0.2909090909090908 Ar
atom_frac 0.5000000000000000 0.0909090909090909 0.4090909090909091 Ar
atom_frac 0.5000000000000000 0.1818181818181818 0.5181818181818182 Ar
atom_frac 0.5000000000000000 0.2727272727272727 0.6272727272727273 Ar
atom_frac 0.5000000000000000 0.3636363636363637 0.7363636363636363 Ar
atom_frac 0.5000000000000000 0.4545454545454546 0.8454545454545456 Ar
atom_frac 0.5000000000000000 0.5454545454545455 0.9545454545454545 Ar
atom_frac 0.5000000000000000 0.6363636363636365 0.0636363636363637 Ar
atom_frac 0.5000000000000000 0.7272727272727274 0.1727272727272726 Ar
atom_frac 0.5000000000000000 0.8181818181818182 0.2818181818181820 Ar
atom_frac 0.5000000000000000 0.9090909090909093 0.3909090909090909 Ar
atom_frac 0.6000000000000000 0.0909090909090909 0.5090909090909090 Ar
atom_frac 0.6000000000000000 0.1818181818181818 0.6181818181818182 Ar
atom_frac 0.6000000000000000 0.2727272727272727 0.7272727272727274 Ar
atom_frac 0.6000000000000000 0.3636363636363637 0.8363636363636366 Ar
atom_frac 0.6000000000000000 0.4545454545454546 0.9454545454545455 Ar
atom_frac 0.6000000000000000 0.5454545454545455 0.0545454545454545 Ar
atom_frac 0.6000000000000000 0.6363636363636365 0.1636363636363638 Ar
atom_frac 0.6000000000000000 0.7272727272727274 0.2727272727272728 Ar
atom_frac 0.6000000000000000 0.8181818181818182 0.3818181818181819 Ar
atom_frac 0.6000000000000000 0.9090909090909093 0.4909090909090910 Ar
atom_frac 0.7000000000000001 0.0909090909090909 0.6090909090909092 Ar
atom_frac 0.7000000000000001 0.1818181818181818 0.7181818181818181 Ar
atom_frac 0.7000000000000001 0.2727272727272727 0.8272727272727274 Ar
atom_frac 0.7000000000000001 0.3636363636363637 0.9363636363636366 Ar
atom_frac 0.7000000000000001 0.4545454545454546 0.0454545454545454 Ar
atom_frac 0.7000000000000001 0.5454545454545455 0.1545454545454546 Ar
atom_frac 0.7000000000000001 0.6363636363636365 0.2636363636363637 Ar
atom_frac 0.7000000000000001 0.7272727272727274 0.3727272727272729 Ar
atom_frac 0.7000000000000001 0.8181818181818182 0.4818181818181820 Ar
atom_frac 0.7000000000000001 0.9090909090909093 0.5909090909090911 Ar
atom_frac 0.8000000000000000 0.0909090909090909 0.7090909090909092 Ar
atom_frac 0.8000000000000000 0.1818181818181818 0.8181818181818181 Ar
atom_frac 0.8000000000000000 0.2727272727272727 0.9272727272727274 Ar
atom_frac 0.8000000000000000 0.3636363636363637 0.0363636363636364 Ar
atom_frac 0.8000000000000000 0.4545454545454546 0.1454545454545455 Ar
atom_frac 0.8000000000000000 0.5454545454545455 0.2545454545454545 Ar
atom_frac 0.8000000000000000 0.6363636363636365 0.3636363636363638 Ar
atom_frac 0.8000000000000000 0.7272727272727274 0.4727272727272728 Ar
atom_frac 0.8000000000000000 0.8181818181818182 0.5818181818181818 Ar
atom_frac 0.8000000000000000 0.9090909090909093 0.6909090909090909 Ar
atom_frac 0.9000000000000000 0.0909090909090909 0.8090909090909092 Ar
atom_frac 0.9000000000000000 0.1818181818181818 0.9181818181818182 Ar
atom_frac 0.9000000000000000 0.2727272727272728 0.0272727272727274 Ar
atom_frac 0.9000000000000000 0.3636363636363637 0.1363636363636365 Ar
atom_frac 0.9000000000000000 0.4545454545454546 0.2454545454545455 Ar
atom_frac 0.9000000000000000 0.5454545454545455 0.3545454545454545 Ar
atom_frac 0.9000000000000000 0.6363636363636365 0.4636363636363636 Ar
atom_frac 0.9000000000000000 0.7272727272727274 0.5727272727272729 Ar
atom_frac 0.9000000000000000 0.8181818181818182 0.6818181818181820 Ar
atom_frac 0.9000000000000000 0.9090909090909093 0.7909090909090908 Ar
atom_frac 0.0000000000000000 0.0909090909090909 0.9090909090909092 Ar
atom_frac 0.0000000000000000 0.1818181818181818 0.0181818181818183 Ar
atom_frac 0.0000000000000000 0.2727272727272727 0.1272727272727272 Ar
atom_frac 0.0000000000000000 0.3636363636363636 0.2363636363636364 Ar
atom_frac 0.0000000000000000 0.4545454545454546 0.3454545454545455 Ar
atom_frac 0.0000000000000000 0.5454545454545455 0.4545454545454547 Ar
atom_frac 0.0000000000000000 0.6363636363636365 0.5636363636363637 Ar
atom_frac 0.0000000000000000 0.7272727272727274 0.6727272727272728 Ar
atom_frac 0.0000000000000000 0.8181818181818182 0.7818181818181820 Ar
atom_frac 0.0000000000000000 0.9090909090909092 0.8909090909090909 Ar
atom_frac 0.2000000000000000 0.1818181818181819 0.0181818181818182 Ar
atom_frac 0.2000000000000000 0.2727272727272727 0.1272727272727273 Ar
atom_frac 0.2000000000000000 0.3636363636363636 0.2363636363636364 Ar
atom_frac 0.2000000000000000 0.4545454545454546 0.3454545454545455 Ar
atom_frac 0.2000000000000000 0.5454545454545454 0.4545454545454547 Ar
atom_frac 0.2000000000000000 0.6363636363636365 0.5636363636363636 Ar
atom_frac 0.2000000000000000 0.7272727272727273 0.6727272727272730 Ar
atom_frac 0.2000000000000000 0.8181818181818186 0.7818181818181819 Ar
atom_frac 0.2000000000000000 0.9090909090909092 0.8909090909090910 Ar
atom_frac 0.2000000000000000 0.0000000000000000 0.0000000000000000 Ar
atom_frac 0.3000000000000000 0.1818181818181819 0.1181818181818182 Ar
atom_frac 0.3000000000000000 0.2727272727272727 0.2272727272727273 Ar
atom_frac 0.3000000000000000 0.3636363636363636 0.3363636363636365 Ar
atom_frac 0.3000000000000000 0.4545454545454546 0.4454545454545455 Ar
atom_frac 0.3000000000000000 0.5454545454545454 0.5545454545454546 Ar
atom_frac 0.3000000000000000 0.6363636363636365 0.6636363636363636 Ar
atom_frac 0.3000000000000000 0.7272727272727273 0.7727272727272730 Ar
atom_frac 0.3000000000000000 0.8181818181818186 0.8818181818181818 Ar
atom_frac 0.3000000000000000 0.9090909090909092 0.9909090909090910 Ar
atom_frac 0.3000000000000000 0.0000000000000000 0.0999999999999999 Ar
atom_frac 0.4000000000000000 0.1818181818181819 0.2181818181818183 Ar
atom_frac 0.4000000000000000 0.2727272727272727 0.3272727272727273 Ar
atom_frac 0.4000000000000000 0.3636363636363637 0.4363636363636365 Ar
atom_frac 0.4000000000000000 0.4545454545454546 0.5454545454545455 Ar
atom_frac 0.4000000000000000 0.5454545454545454 0.6545454545454547 Ar
atom_frac 0.4000000000000000 0.6363636363636365 0.7636363636363637 Ar
atom_frac 0.4000000000000000 0.7272727272727273 0.8727272727272731 Ar
atom_frac 0.4000000000000000 0.8181818181818186 0.9818181818181818 Ar
atom_frac 0.4000000000000000 0.9090909090909092 0.0909090909090908 Ar
atom_frac 0.4000000000000000 0.0000000000000000 0.2000000000000000 Ar
atom_frac 0.5000000000000000 0.1818181818181819 0.3181818181818183 Ar
atom_frac 0.5000000000000000 0.2727272727272727 0.4272727272727273 Ar
atom_frac 0.5000000000000000 0.3636363636363637 0.5363636363636364 Ar
atom_frac 0.5000000000000000 0.4545454545454546 0.6454545454545456 Ar
atom_frac 0.5000000000000000 0.5454545454545454 0.7545454545454546 Ar
atom_frac 0.5000000000000000 0.6363636363636365 0.8636363636363638 Ar
atom_frac 0.5000000000000000 0.7272727272727273 0.9727272727272731 Ar
atom_frac 0.5000000000000000 0.8181818181818186 0.0818181818181818 Ar
atom_frac 0.5000000000000000 0.9090909090909093 0.1909090909090909 Ar
atom_frac 0.5000000000000000 0.0000000000000000 0.2999999999999999 Ar
atom_frac 0.6000000000000001 0.1818181818181819 0.4181818181818183 Ar
atom_frac 0.6000000000000001 0.2727272727272727 0.5272727272727273 Ar
atom_frac 0.6000000000000001 0.3636363636363637 0.6363636363636364 Ar
atom_frac 0.6000000000000001 0.4545454545454546 0.7454545454545456 Ar
atom_frac 0.6000000000000001 0.5454545454545454 0.8545454545454546 Ar
atom_frac 0.6000000000000001 0.6363636363636365 0.9636363636363637 Ar
atom_frac 0.6000000000000001 0.7272727272727273 0.0727272727272728 Ar
atom_frac 0.6000000000000001 0.8181818181818186 0.1818181818181817 Ar
atom_frac 0.6000000000000001 0.9090909090909093 0.2909090909090911 Ar
atom_frac 0.6000000000000001 0.0000000000000000 0.4000000000000000 Ar
atom_frac 0.7000000000000000 0.1818181818181818 0.5181818181818182 Ar
atom_frac 0.7000000000000000 0.2727272727272727 0.6272727272727273 Ar
atom_frac 0.7000000000000000 0.3636363636363637 0.7363636363636367 Ar
atom_frac 0.7000000000000000 0.4545454545454546 0.8454545454545456 Ar
atom_frac 0.7000000000000000 0.5454545454545454 0.9545454545454546 Ar
atom_frac 0.7000000000000000 0.6363636363636365 0.0636363636363635 Ar
atom_frac 0.7000000000000000 0.7272727272727274 0.1727272727272729 Ar
atom_frac 0.7000000000000000 0.8181818181818186 0.2818181818181818 Ar
atom_frac 0.7000000000000000 0.9090909090909093 0.3909090909090909 Ar
atom_frac 0.7000000000000000 0.0000000000000000 0.5000000000000000 Ar
atom_frac 0.8000000000000000 0.1818181818181818 0.6181818181818183 Ar
atom_frac 0.8000000000000000 0.2727272727272727 0.7272727272727274 Ar
atom_frac 0.8000000000000000 0.3636363636363637 0.8363636363636366 Ar
atom_frac 0.8000000000000000 0.4545454545454546 0.9454545454545457 Ar
atom_frac 0.8000000000000000 0.5454545454545454 0.0545454545454545 Ar
atom_frac 0.8000000000000000 0.6363636363636365 0.1636363636363636 Ar
atom_frac 0.8000000000000000 0.7272727272727274 0.2727272727272728 Ar
atom_frac 0.8000000000000000 0.8181818181818186 0.3818181818181819 Ar
atom_frac 0.8000000000000000 0.9090909090909093 0.4909090909090910 Ar
atom_frac 0.8000000000000000 0.0000000000000000 0.6000000000000000 Ar
atom_frac 0.9000000000000004 0.1818181818181818 0.7181818181818183 Ar
atom_frac 0.9000000000000004 0.2727272727272727 0.8272727272727274 Ar
atom_frac 0.9000000000000004 0.3636363636363637 0.9363636363636366 Ar
atom_frac 0.9000000000000004 0.4545454545454546 0.0454545454545454 Ar
atom_frac 0.9000000000000004 0.5454545454545454 0.1545454545454546 Ar
atom_frac 0.9000000000000004 0.6363636363636365 0.2636363636363635 Ar
atom_frac 0.9000000000000004 0.7272727272727274 0.3727272727272729 Ar
atom_frac 0.9000000000000004 0.8181818181818186 0.4818181818181818 Ar
atom_frac 0.9000000000000004 0.9090909090909093 0.5909090909090911 Ar
atom_frac 0.9000000000000004 0.0000000000000000 0.7000000000000000 Ar
atom_frac 0.0000000000000000 0.1818181818181818 0.8181818181818182 Ar
atom_frac 0.0000000000000000 0.2727272727272727 0.9272727272727274 Ar
atom_frac 0.0000000000000000 0.3636363636363636 0.0363636363636364 Ar
atom_frac 0.0000000000000000 0.4545454545454546 0.1454545454545455 Ar
atom_frac 0.0000000000000000 0.5454545454545454 0.2545454545454544 Ar
atom_frac 0.0000000000000000 0.6363636363636365 0.3636363636363635 Ar
atom_frac 0.0000000000000000 0.7272727272727273 0.4727272727272728 Ar
atom_frac 0.0000000000000000 0.8181818181818186 0.5818181818181819 Ar
atom_frac 0.0000000000000000 0.9090909090909092 0.6909090909090909 Ar
atom_frac 0.0000000000000000 0.0000000000000000 0.7999999999999998 Ar
atom_frac 0.1000000000000001 0.1818181818181818 0.9181818181818182 Ar
atom_frac 0.1000000000000001 0.2727272727272727 0.0272727272727273 Ar
atom_frac 0.1000000000000001 0.3636363636363636 0.1363636363636362 Ar
atom_frac 0.1000000000000001 0.4545454545454546 0.2454545454545455 Ar
atom_frac 0.1000000000000001 0.5454545454545454 0.3545454545454545 Ar
atom_frac 0.1000000000000001 0.6363636363636365 0.4636363636363636 Ar
atom_frac 0.1000000000000001 0.7272727272727273 0.5727272727272730 Ar
atom_frac 0.1000000000000001 0.8181818181818186 0.6818181818181820 Ar
atom_frac 0.1000000000000001 0.9090909090909092 0.7909090909090910 Ar
atom_frac 0.1000000000000001 0.0000000000000000 0.8999999999999999 Ar
atom_frac 0.3000000000000000 0.2727272727272727 0.0272727272727273 Ar
atom_frac 0.3000000000000000 0.3636363636363636 0.1363636363636364 Ar
atom_frac 0.3000000000000000 0.4545454545454546 0.2454545454545455 Ar
atom_frac 0.3000000000000000 0.5454545454545455 0.3545454545454547 Ar
atom_frac 0.3000000000000000 0.6363636363636364 0.4636363636363637 Ar
atom_frac 0.3000000000000000 0.7272727272727273 0.5727272727272726 Ar
atom_frac 0.3000000000000000 0.8181818181818182 0.6818181818181820 Ar
atom_frac 0.3000000000000000 0.9090909090909092 0.7909090909090909 Ar
atom_frac 0.3000000000000000 0.0000000000000000 0.9000000000000000 Ar
atom_frac 0.3000000000000000 0.0909090909090911 0.0090909090909091 Ar
atom_frac 0.4000000000000000 0.2727272727272727 0.1272727272727273 Ar
atom_frac 0.4000000000000000 0.3636363636363637 0.2363636363636364 Ar
atom_frac 0.4000000000000000 0.4545454545454546 0.3454545454545455 Ar
atom_frac 0.4000000000000000 0.5454545454545455 0.4545454545454547 Ar
atom_frac 0.4000000000000000 0.6363636363636364 0.5636363636363636 Ar
atom_frac 0.4000000000000000 0.7272727272727273 0.6727272727272726 Ar
atom_frac 0.4000000000000000 0.8181818181818182 0.7818181818181819 Ar
atom_frac 0.4000000000000000 0.9090909090909092 0.8909090909090909 Ar
atom_frac 0.4000000000000000 0.0000000000000000 0.0000000000000000 Ar
atom_frac 0.4000000000000000 0.0909090909090911 0.1090909090909091 Ar
atom_frac 0.5000000000000000 0.2727272727272727 0.2272727272727273 Ar
atom_frac 0.5000000000000000 0.3636363636363637 0.3363636363636364 Ar
atom_frac 0.5000000000000000 0.4545454545454546 0.4454545454545455 Ar
atom_frac 0.5000000000000000 0.5454545454545455 0.5545454545454546 Ar
atom_frac 0.5000000000000000 0.6363636363636364 0.6636363636363637 Ar
atom_frac 0.5000000000000000 0.7272727272727273 0.7727272727272726 Ar
atom_frac 0.5000000000000000 0.8181818181818182 0.8818181818181819 Ar
atom_frac 0.5000000000000000 0.9090909090909093 0.9909090909090909 Ar
atom_frac 0.5000000000000000 0.0000000000000000 0.1000000000000001 Ar
atom_frac 0.5000000000000000 0.0909090909090911 0.2090909090909092 Ar
atom_frac 0.6000000000000001 0.2727272727272727 0.3272727272727273 Ar
atom_frac 0.6000000000000001 0.3636363636363637 0.4363636363636365 Ar
atom_frac 0.6000000000000001 0.4545454545454546 0.5454545454545454 Ar
atom_frac 0.6000000000000001 0.5454545454545455 0.6545454545454545 Ar
atom_frac 0.6000000000000001 0.6363636363636364 0.7636363636363638 Ar
atom_frac 0.6000000000000001 0.7272727272727273 0.8727272727272727 Ar
atom_frac 0.6000000000000001 0.8181818181818182 0.9818181818181820 Ar
atom_frac 0.6000000000000001 0.9090909090909093 0.0909090909090911 Ar
atom_frac 0.6000000000000001 0.0000000000000000 0.2000000000000002 Ar
atom_frac 0.6000000000000001 0.0909090909090911 0.3090909090909091 Ar
atom_frac 0.7000000000000001 0.2727272727272727 0.4272727272727273 Ar
atom_frac 0.7000000000000001 0.3636363636363637 0.5363636363636364 Ar
atom_frac 0.7000000000000001 0.4545454545454546 0.6454545454545456 Ar
atom_frac 0.7000000000000001 0.5454545454545455 0.7545454545454545 Ar
atom_frac 0.7000000000000001 0.6363636363636364 0.8636363636363638 Ar
atom_frac 0.7000000000000001 0.7272727272727274 0.9727272727272727 Ar
atom_frac 0.7000000000000001 0.8181818181818182 0.0818181818181821 Ar
atom_frac 0.7000000000000001 0.9090909090909093 0.1909090909090909 Ar
atom_frac 0.7000000000000001 0.0000000000000000 0.3000000000000003 Ar
atom_frac 0.7000000000000001 0.0909090909090911 0.4090909090909092 Ar
atom_frac 0.8000000000000000 0.2727272727272727 0.5272727272727273 Ar
atom_frac 0.8000000000000000 0.3636363636363637 0.6363636363636364 Ar
atom_frac 0.8000000000000000 0.4545454545454546 0.7454545454545456 Ar
atom_frac 0.8000000000000000 0.5454545454545455 0.8545454545454546 Ar
atom_frac 0.8000000000000000 0.6363636363636364 0.9636363636363637 Ar
atom_frac 0.8000000000000000 0.7272727272727274 0.0727272727272728 Ar
atom_frac 0.8000000000000000 0.8181818181818182 0.1818181818181822 Ar
atom_frac 0.8000000000000000 0.9090909090909093 0.2909090909090911 Ar
atom_frac 0.8000000000000000 0.0000000000000000 0.4000000000000002 Ar
atom_frac 0.8000000000000000 0.0909090909090911 0.5090909090909094 Ar
atom_frac 0.9000000000000004 0.2727272727272727 0.6272727272727273 Ar
atom_frac 0.9000000000000004 0.3636363636363637 0.7363636363636363 Ar
atom_frac 0.9000000000000004 0.4545454545454546 0.8454545454545456 Ar
atom_frac 0.9000000000000004 0.5454545454545455 0.9545454545454546 Ar
atom_frac 0.9000000000000004 0.6363636363636364 0.0636363636363638 Ar
atom_frac 0.9000000000000004 0.7272727272727274 0.1727272727272729 Ar
atom_frac 0.9000000000000004 0.8181818181818182 0.2818181818181820 Ar
atom_frac 0.9000000000000004 0.9090909090909093 0.3909090909090911 Ar