#=======================================================
# FHI-aims file: geometry.in.supercell.0050K
# Created using the Atomic Simulation Environment (ASE)
# Mon Feb  6 15:33:54 2023

# Additional information:
#  created from MB distrubtion
#  T = 50.0 K
#  quantum:             False
#  deterministic:       False
#  plus_minus:          False
#  gauge_eigenvectors:  False
#  Random seed:         2069705680
#  Sample number:       1
#=======================================================
lattice_vector 26.2999999999999972 0.0000000000000000 0.0000000000000000 
lattice_vector 0.0000000000000000 28.9299999999999997 -2.6300000000000008 
lattice_vector 0.0000000000000000 0.0000000000000000 26.2999999999999972 
atom 0.0000000000000000 0.0000000000000000 0.0000000000000000 Ar
    velocity 1.3270935299389945 -1.0392457285293879 1.1921397361867438
atom 0.0000000000000000 2.6299999999999994 2.6299999999999999 Ar
    velocity 0.2066982731543710 2.1173117028875712 -0.4338228118741412
atom 0.0000000000000000 5.2599999999999989 5.2600000000000025 Ar
    velocity 1.4846798341628682 1.7612539520069674 -0.0912129584487383
atom 0.0000000000000000 7.8900000000000023 7.8899999999999997 Ar
    velocity -0.8234375747451355 0.0014343148109164 -0.2837829438255955
atom 0.0000000000000000 10.5199999999999978 10.5200000000000031 Ar
    velocity -0.4720082550796827 -1.3281398985593573 -1.2572990931893411
atom 0.0000000000000000 13.1500000000000004 13.1499999999999968 Ar
    velocity -0.9007378756548162 -0.2237156749772589 -1.2754749972865298
atom 0.0000000000000000 15.7800000000000011 15.7800000000000011 Ar
    velocity 0.6669929895778861 0.5560268344404427 2.1663351671312019
atom 0.0000000000000000 18.4100000000000037 18.4099999999999966 Ar
    velocity 0.2498941720125639 -0.8408002290931433 -1.1343768858712755
atom 0.0000000000000000 21.0399999999999991 21.0400000000000063 Ar
    velocity -0.7430859989626311 -0.7723442928992904 -1.2967834260915230
atom 0.0000000000000000 23.6700000000000017 23.6699999999999946 Ar
    velocity 2.3812230456562937 -1.8977105484582115 -0.9607520842217303
atom 0.0000000000000000 26.3000000000000007 -0.0000000000000042 Ar
    velocity -1.4157207308950319 1.2686860374191289 -0.9854693140975007
atom 0.0000000000000000 0.0000000000000000 5.2599999999999998 Ar
    velocity -0.7099791591582677 -0.2058330466897074 -0.0281714981148811
atom 0.0000000000000000 2.6300000000000026 7.8900000000000077 Ar
    velocity 1.1337821179991112 -0.8038450567571525 0.4100913091447347
atom 0.0000000000000000 5.2600000000000025 10.5200000000000014 Ar
    velocity 0.6701058427243833 -0.8452580844425764 -1.8287904542500446
atom 0.0000000000000000 7.8900000000000041 13.1500000000000004 Ar
    velocity 1.1110587130164851 -1.0795398264805325 -0.0755990788454420
atom 2.6299999999999999 0.0000000000000000 2.6299999999999999 Ar
    velocity -0.1453211701956914 -0.9191803791386772 -0.6838891586620254
atom 2.6299999999999999 2.6299999999999994 5.2600000000000016 Ar
    velocity 0.2569601804960576 0.6327352252909753 0.5232701177643745
atom 2.6299999999999999 5.2599999999999989 7.8900000000000015 Ar
    velocity -0.1965007156631808 -0.8864452000427847 -0.4508623395511220
atom 2.6299999999999999 7.8900000000000023 10.5200000000000014 Ar
    velocity -0.1618489015371309 -0.4635346375123766 -0.3125046607397333
atom 2.6299999999999999 10.5199999999999978 13.1499999999999986 Ar
    velocity 1.2352361523637883 1.9353067404394027 -0.4737512438082586
atom 2.6299999999999999 13.1500000000000004 15.7800000000000011 Ar
    velocity -2.1536277368395411 -0.1711716478725248 -0.1209875582247073
atom 2.6299999999999999 15.7800000000000011 18.4100000000000001 Ar
    velocity 1.3987131550036975 -0.8047736649739016 1.0976563439173448
atom 2.6299999999999999 18.4100000000000037 21.0399999999999956 Ar
    velocity 0.3879167438802923 1.1921147101330303 0.2621317828849568
atom 2.6299999999999999 21.0399999999999991 23.6700000000000053 Ar
    velocity 0.6553092859768247 -0.5640838580718599 1.0343720084596930
atom 2.6299999999999999 23.6700000000000017 -0.0000000000000015 Ar
    velocity -1.5022437252915186 -1.1621245884572662 0.2766632730542172
atom 2.6299999999999999 26.3000000000000007 2.6299999999999977 Ar
    velocity -1.1910337986382027 1.9877396492243327 0.1494448363163108
atom 2.6299999999999999 0.0000000000000000 7.8899999999999988 Ar
    velocity 0.2723392416452399 -0.6976602502801660 0.5494111752328626
atom 2.6299999999999999 2.6300000000000057 10.5200000000000085 Ar
    velocity 1.1734627266807183 -1.9383061305620417 -0.4329491208177674
atom 2.6299999999999999 5.2600000000000025 13.1500000000000021 Ar
    velocity -1.3134135289828441 0.5910178332070936 2.6738873829849967
atom 2.6299999999999999 7.8900000000000041 15.7800000000000011 Ar
    velocity -0.8937884721831063 -0.5768547012345945 -0.7609166176413884
atom 5.2599999999999998 0.0000000000000000 5.2599999999999998 Ar
    velocity 1.0118302684100877 -0.9761938466147921 -1.2160746810442795
atom 5.2599999999999998 2.6299999999999994 7.8899999999999988 Ar
    velocity -0.6364163601842161 1.6308898956138278 -0.8808105089768897
atom 5.2599999999999998 5.2600000000000025 10.5200000000000014 Ar
    velocity 1.3375668924430160 1.7569197980522062 0.4651931949724065
atom 5.2599999999999998 7.8900000000000023 13.1500000000000004 Ar
    velocity 0.9900662001635735 1.1584682242210100 -0.8448517588955163
atom 5.2599999999999998 10.5199999999999978 15.7800000000000029 Ar
    velocity 0.2246858861320704 0.1484244033063054 -0.0603880912186680
atom 5.2599999999999998 13.1500000000000004 18.4099999999999966 Ar
    velocity 1.7161650336517451 0.0327178780694003 1.3048496831008429
atom 5.2599999999999998 15.7800000000000011 21.0400000000000027 Ar
    velocity -0.3819461004565857 -0.7729120838508590 0.3248251260591059
atom 5.2599999999999998 18.4100000000000037 23.6699999999999946 Ar
    velocity 0.6667466421602845 1.9387582204590201 0.7917687038523140
atom 5.2599999999999998 21.0399999999999991 0.0000000000000010 Ar
    velocity -0.9737005572538298 -0.8424593427365383 -1.3153288785601911
atom 5.2599999999999998 23.6700000000000017 2.6300000000000008 Ar
    velocity 1.1780928655635181 0.3327292060019449 -0.3918491792063057
atom 5.2599999999999998 26.3000000000000007 5.2599999999999945 Ar
    velocity 1.7962110165347038 -0.1073294072034515 -0.5161390639639127
atom 5.2599999999999998 0.0000000000000000 10.5199999999999960 Ar
    velocity -0.3929243033318391 1.3121483293850458 -0.1780422174330205
atom 5.2599999999999998 2.6300000000000057 13.1500000000000021 Ar
    velocity -0.9576591331261031 0.0079240941712007 0.0018419441332355
atom 5.2599999999999998 5.2600000000000025 15.7799999999999976 Ar
    velocity 0.5940399187975962 0.8096141803263870 -2.3263648517542594
atom 5.2599999999999998 7.8900000000000041 18.4099999999999966 Ar
    velocity -0.5035678413685762 0.6469807191220525 0.7987907742131160
atom 7.8899999999999988 0.0000000000000000 7.8899999999999988 Ar
    velocity 1.3663885425405191 1.3794523445786988 0.3703266299335122
atom 7.8899999999999988 2.6299999999999994 10.5199999999999996 Ar
    velocity -0.1769545432795857 -0.3985414093626128 -0.1849261061403327
atom 7.8899999999999988 5.2599999999999989 13.1499999999999986 Ar
    velocity 1.4219211661275699 -0.1658549607867703 -0.7029593982810535
atom 7.8899999999999988 7.8900000000000023 15.7799999999999994 Ar
    velocity 0.6258743707169144 -0.8921602091904928 -0.3951649540063703
atom 7.8899999999999988 10.5199999999999978 18.4100000000000072 Ar
    velocity 1.2341664941909705 0.3171767029038091 1.4497612496607488
atom 7.8899999999999988 13.1500000000000004 21.0399999999999991 Ar
    velocity -0.8630575637509711 0.6621837355709340 2.4784547764677289
atom 7.8899999999999988 15.7800000000000011 23.6700000000000017 Ar
    velocity -1.0551605045446821 0.8715139429803234 -0.9253795250915782
atom 7.8899999999999988 18.4100000000000037 0.0000000000000006 Ar
    velocity 0.9351633716130080 0.2947580966416329 0.8026337213478991
atom 7.8899999999999988 21.0399999999999991 2.6300000000000034 Ar
    velocity 2.5666380659381081 0.5844168648339387 -0.7703465404848880
atom 7.8899999999999988 23.6700000000000017 5.2599999999999980 Ar
    velocity 0.9010005501585238 -0.2435663705504924 -0.6185996261882689
atom 7.8899999999999988 26.3000000000000007 7.8899999999999970 Ar
    velocity 0.7111688524148376 -1.0959606100355994 -0.3009994276851269
atom 7.8899999999999988 0.0000000000000000 13.1499999999999986 Ar
    velocity 0.9644406620906728 0.0372651021687205 0.0987003051718810
atom 7.8899999999999988 2.6300000000000057 15.7800000000000047 Ar
    velocity 1.3308157948612152 0.9338565080828710 0.3408416167637683
atom 7.8899999999999988 5.2600000000000025 18.4100000000000001 Ar
    velocity 1.8354888406788732 0.5116391573926493 0.4491207096927564
atom 7.8899999999999988 7.8900000000000041 21.0399999999999991 Ar
    velocity 0.9294957489423732 1.0140223589404971 -0.1608497801477811
atom 10.5199999999999996 0.0000000000000000 10.5199999999999996 Ar
    velocity 0.2049370202532239 1.0430506048810084 0.6472996411887258
atom 10.5199999999999996 2.6299999999999994 13.1500000000000004 Ar
    velocity -1.1519641980590902 1.6693418120661787 -1.4830429025312633
atom 10.5199999999999996 5.2599999999999989 15.7799999999999976 Ar
    velocity 0.7732559323279861 -1.0950296701059266 -0.1460253124090614
atom 10.5199999999999996 7.8900000000000023 18.4100000000000001 Ar
    velocity 0.0374975586817486 -0.1266492495924230 0.3724314782379112
atom 10.5199999999999996 10.5200000000000014 21.0400000000000027 Ar
    velocity -1.4514536492176535 1.0913331760431488 1.0193128073453117
atom 10.5199999999999996 13.1500000000000004 23.6699999999999982 Ar
    velocity -1.3794006276142889 -0.5990350896140829 0.7913634724363815
atom 10.5199999999999996 15.7800000000000011 0.0000000000000033 Ar
    velocity 0.0349227404553480 1.3852086202854133 -0.8804371141873140
atom 10.5199999999999996 18.4100000000000037 2.6299999999999981 Ar
    velocity 0.0713895009283491 -2.1696123520547772 0.0216714182836113
atom 10.5199999999999996 21.0399999999999991 5.2600000000000025 Ar
    velocity 1.1823631953955167 3.0303255595085776 -1.2888464154922463
atom 10.5199999999999996 23.6700000000000017 7.8899999999999970 Ar
    velocity 1.6259892114239334 -0.8815475145571260 0.0758091099802039
atom 10.5199999999999996 26.3000000000000007 10.5199999999999978 Ar
    velocity -0.4903837494002984 -0.2670571257833650 0.6161600226808058
atom 10.5199999999999996 0.0000000000000000 15.7800000000000011 Ar
    velocity -2.1859524677229394 -1.4831385832570789 0.2470271985306430
atom 10.5199999999999996 2.6300000000000057 18.4100000000000072 Ar
    velocity 1.8575346013029319 -0.2473069311218366 1.2452233623952900
atom 10.5199999999999996 5.2600000000000025 21.0400000000000063 Ar
    velocity 0.0689835146709048 -0.3291606794870696 0.8413028573404897
atom 10.5199999999999996 7.8900000000000041 23.6699999999999982 Ar
    velocity 0.5440099086167113 1.4424329940513687 0.4202085491541721
atom 13.1499999999999986 0.0000000000000000 13.1499999999999986 Ar
    velocity -0.3088945576291365 1.1071738311537509 1.9258361944514073
atom 13.1499999999999986 2.6299999999999994 15.7800000000000047 Ar
    velocity 0.0661717882714240 0.3785417094600457 2.2597465793065599
atom 13.1499999999999986 5.2599999999999989 18.4100000000000001 Ar
    velocity -1.2615924466370092 -0.0638853469920255 1.0384261080976465
atom 13.1499999999999986 7.8900000000000023 21.0399999999999991 Ar
    velocity 1.4535709364576734 1.5875622197366499 0.0527074672128410
atom 13.1499999999999986 10.5200000000000014 23.6700000000000053 Ar
    velocity -1.2570186163482806 0.1451557557179018 -1.0724606031240056
atom 13.1499999999999986 13.1500000000000004 -0.0000000000000021 Ar
    velocity -0.8682631334348085 -1.5886598928420204 0.4434181750414675
atom 13.1499999999999986 15.7800000000000011 2.6300000000000052 Ar
    velocity -1.7511894244441597 1.1321389692323907 1.2564389912702947
atom 13.1499999999999986 18.4100000000000037 5.2600000000000007 Ar
    velocity 0.2414775215118000 -0.4786970405416982 -1.0029759676607251
atom 13.1499999999999986 21.0399999999999991 7.8900000000000032 Ar
    velocity 0.3339843196789534 1.0561783284165305 0.2943168561379760
atom 13.1499999999999986 23.6700000000000017 10.5200000000000014 Ar
    velocity 0.3477219093458502 1.2858397889128768 0.8055633481468262
atom 13.1499999999999986 26.3000000000000043 13.1499999999999950 Ar
    velocity 2.2285652975112251 1.9900501205808259 0.4652668441460771
atom 13.1499999999999986 0.0000000000000000 18.4099999999999966 Ar
    velocity 0.3936882514124857 0.8475777288993378 0.8413648947187472
atom 13.1499999999999986 2.6300000000000026 21.0400000000000027 Ar
    velocity -0.1972382983500841 1.4449853471331329 0.2959099121851382
atom 13.1499999999999986 5.2600000000000025 23.6700000000000017 Ar
    velocity 1.6628437341481483 0.2196823118651164 0.0290001176956135
atom 13.1499999999999986 7.8900000000000041 0.0000000000000027 Ar
    velocity 0.2371122058171516 -0.2189476340928722 1.0350969225901898
atom 15.7800000000000011 0.0000000000000000 15.7800000000000011 Ar
    velocity 0.3648906388506420 -0.5601935656585397 -1.5471752585138052
atom 15.7800000000000011 2.6299999999999994 18.4100000000000001 Ar
    velocity -0.9973376036168539 -0.1870140198196874 0.9407603257150120
atom 15.7800000000000011 5.2599999999999989 21.0399999999999991 Ar
    velocity 1.5757147762785340 1.1445601361275759 0.2414573287483464
atom 15.7800000000000011 7.8900000000000023 23.6699999999999982 Ar
    velocity -1.2176738257687982 -1.9699578634329924 -1.1174466017199907
atom 15.7800000000000011 10.5200000000000014 0.0000000000000003 Ar
    velocity -0.8697210542543157 0.1714578443299180 0.3380860848338038
atom 15.7800000000000011 13.1500000000000004 2.6300000000000003 Ar
    velocity -1.9385653439786472 -0.1159413164950727 -1.0668972759404660
atom 15.7800000000000011 15.7800000000000011 5.2600000000000025 Ar
    velocity -0.3074905395258069 -0.8425823889802140 -1.1310264607453480
atom 15.7800000000000011 18.4100000000000037 7.8900000000000023 Ar
    velocity -0.2355065195637127 -0.9854103278801304 -1.5494840149536540
atom 15.7800000000000011 21.0399999999999991 10.5200000000000031 Ar
    velocity -1.3092701877182991 0.1851311156125259 -0.6819541632177930
atom 15.7800000000000011 23.6700000000000017 13.1499999999999968 Ar
    velocity -0.1754784974073066 -0.4915630420624392 -1.9374574160334441
atom 15.7800000000000011 26.3000000000000043 15.7799999999999976 Ar
    velocity -1.0713052105790537 -1.1446084470328242 -1.7037242038126399
atom 15.7800000000000011 0.0000000000000000 21.0399999999999991 Ar
    velocity 0.8144576782071064 -0.1229419455765146 -0.6964925388832796
atom 15.7800000000000011 2.6300000000000057 23.6700000000000053 Ar
    velocity 1.0500309709661040 -0.8981864741960451 -0.4376697894556856
atom 15.7800000000000011 5.2600000000000025 -0.0000000000000025 Ar
    velocity -0.4928589617711784 0.1898119278946398 -0.5184386937214193
atom 15.7800000000000011 7.8900000000000041 2.6300000000000052 Ar
    velocity -0.8186497953627982 1.2371345247883079 0.1616604588912621
atom 18.4100000000000001 0.0000000000000000 18.4100000000000001 Ar
    velocity -0.0944243845228821 -0.7386808475371641 1.2189822441194544
atom 18.4100000000000001 2.6299999999999994 21.0399999999999991 Ar
    velocity 0.8755317941627291 -1.3684744422571304 -1.1876478218943423
atom 18.4100000000000001 5.2599999999999989 23.6699999999999982 Ar
    velocity -0.8145002199686449 -1.4691964665226842 -0.4752293703203835
atom 18.4100000000000001 7.8900000000000023 0.0000000000000028 Ar
    velocity -0.0954866172254431 -0.9690711267181443 -0.4799627473087660
atom 18.4100000000000001 10.5200000000000014 2.6300000000000026 Ar
    velocity 0.4263404123800535 -0.3981217182528184 -0.6338262804666416
atom 18.4100000000000001 13.1500000000000004 5.2599999999999998 Ar
    velocity -0.8156518434549123 -0.4106812407472740 1.5560250213749431
atom 18.4100000000000001 15.7800000000000011 7.8900000000000032 Ar
    velocity 1.6345548238393990 -0.3638263736199128 -0.2295782616511271
atom 18.4100000000000001 18.4100000000000037 10.5199999999999978 Ar
    velocity 0.6071817927069195 -0.2115334636423676 0.7124061887590000
atom 18.4100000000000001 21.0400000000000027 13.1500000000000004 Ar
    velocity 0.4847213178064509 0.5695646112186860 -0.1715180040562516
atom 18.4100000000000001 23.6700000000000017 15.7800000000000011 Ar
    velocity -0.7222207944513847 1.0873340114159149 -1.1364908284872701
atom 18.4100000000000001 26.3000000000000043 18.4099999999999930 Ar
    velocity -1.3616429074794236 -2.4836044688050283 -0.1974391470787168
atom 18.4100000000000001 0.0000000000000000 23.6699999999999946 Ar
    velocity 2.1768717542060823 -0.8959115819180958 -1.4956261325927747
atom 18.4100000000000001 2.6300000000000057 0.0000000000000049 Ar
    velocity -1.8141716378611306 0.0384456150516707 -1.3747026303353507
atom 18.4100000000000001 5.2600000000000025 2.6299999999999994 Ar
    velocity -0.0219849136515966 0.7373796132584646 -0.3289096692780810
atom 18.4100000000000001 7.8900000000000077 5.2600000000000042 Ar
    velocity 1.1698175453653095 0.6378649959292370 -1.5059722074566693
atom 21.0399999999999991 0.0000000000000000 21.0399999999999991 Ar
    velocity 0.8645784012720288 -2.1769723691772489 0.8954508671677519
atom 21.0399999999999991 2.6299999999999994 23.6700000000000017 Ar
    velocity -0.0661941747603028 -0.5168848517929823 -1.0267668888920920
atom 21.0399999999999991 5.2600000000000025 0.0000000000000027 Ar
    velocity -0.6667484920176823 -2.0519414529274087 0.0305003587084699
atom 21.0399999999999991 7.8900000000000023 2.6300000000000052 Ar
    velocity 0.6526875708696577 0.1765088256548273 0.5164992226694111
atom 21.0399999999999991 10.5200000000000014 5.2599999999999998 Ar
    velocity 0.4080470975873391 -1.0756813349042362 0.1330319159903938
atom 21.0399999999999991 13.1500000000000004 7.8899999999999997 Ar
    velocity -0.5642951979158637 -1.2380193460548949 -1.0978359114766791
atom 21.0399999999999991 15.7800000000000011 10.5200000000000014 Ar
    velocity -0.5689030000486439 -1.1708244973434538 -0.9840700393177932
atom 21.0399999999999991 18.4100000000000037 13.1500000000000004 Ar
    velocity 0.5922338268837214 -0.4427484769928022 0.2602766427655047
atom 21.0399999999999991 21.0400000000000027 15.7800000000000029 Ar
    velocity 0.7304562180483669 1.4826952540755014 -2.0142232265007296
atom 21.0399999999999991 23.6700000000000017 18.4099999999999966 Ar
    velocity -0.7814644973738262 -0.4647713099285053 -0.5284122600227182
atom 21.0399999999999991 26.3000000000000043 21.0399999999999956 Ar
    velocity 1.2136075927507608 0.1334592361598010 -0.4205460814614833
atom 21.0399999999999991 0.0000000000000000 0.0000000000000000 Ar
    velocity 0.6633886192684721 -0.2618575288165431 0.3390705909474440
atom 21.0399999999999991 2.6300000000000057 2.6300000000000074 Ar
    velocity 1.7379001811244041 1.5360428791828498 1.8407724057425148
atom 21.0399999999999991 5.2600000000000025 5.2600000000000025 Ar
    velocity -0.3505307311729728 0.3229348647071648 -1.4015637101599310
atom 21.0399999999999991 7.8900000000000077 7.8899999999999997 Ar
    velocity 0.5076995095049007 0.4985208448006077 -1.0572260978600965
atom 23.6699999999999982 0.0000000000000000 23.6699999999999982 Ar
    velocity 0.2431852971703958 0.0231282303671277 1.2638387478799040
atom 23.6699999999999982 2.6299999999999994 0.0000000000000054 Ar
    velocity -0.7921783620314813 -0.6097691324206058 -0.1635095539151384
atom 23.6699999999999982 5.2600000000000025 2.6299999999999994 Ar
    velocity -0.0255644854760327 -1.3176889912713980 -0.1103335769933118
atom 23.6699999999999982 7.8900000000000023 5.2599999999999998 Ar
    velocity -0.5596092890539107 1.3801716071750640 -0.5218551942693248
atom 23.6699999999999982 10.5200000000000014 7.8900000000000015 Ar
    velocity 0.9897836972533082 2.5544791866875700 0.3708493648341742
atom 23.6699999999999982 13.1500000000000004 10.5199999999999996 Ar
    velocity -0.6616287815474928 1.1633258471176449 -0.3873855903898081
atom 23.6699999999999982 15.7800000000000011 13.1500000000000039 Ar
    velocity -1.1116471806429258 -1.3007870138612307 -0.6795351870724302
atom 23.6699999999999982 18.4100000000000037 15.7800000000000011 Ar
    velocity 0.2049693822204978 -0.3341611746409736 -0.9205639051877261
atom 23.6699999999999982 21.0400000000000027 18.4100000000000037 Ar
    velocity -0.9212575356596814 -1.4112487672043201 1.8320054118273306
atom 23.6699999999999982 23.6700000000000017 21.0399999999999991 Ar
    velocity 0.8111556648154813 -0.1575542132496071 -0.4670331824547846
atom 23.6699999999999982 26.3000000000000043 23.6699999999999982 Ar
    velocity -0.5383185452237473 1.3930610273332162 -1.0319125681105354
atom 23.6699999999999982 0.0000000000000000 2.6300000000000026 Ar
    velocity 0.7026098732278532 -1.0817950550592212 -0.0670111675615793
atom 23.6699999999999982 2.6300000000000057 5.2600000000000096 Ar
    velocity 0.2754614875562389 0.8553721710789659 -1.4244291865652612
atom 23.6699999999999982 5.2600000000000025 7.8900000000000041 Ar
    velocity -1.1168679681187839 1.5486443067602684 -1.0690238999384958
atom 23.6699999999999982 7.8900000000000077 10.5200000000000014 Ar
    velocity 0.1913448760103595 0.5287298254238939 1.0361745632645607
atom 2.6299999999999999 2.6299999999999994 0.0000000000000001 Ar
    velocity -0.7739164175426335 0.5145936190075001 -0.0353787685516913
atom 2.6299999999999999 5.2599999999999989 2.6299999999999999 Ar
    velocity 0.5367433874912654 0.1876610021566658 0.5465957111966121
atom 2.6299999999999999 7.8899999999999997 5.2599999999999998 Ar
    velocity 0.8310196270269765 -0.1060790423516108 1.5983123323428243
atom 2.6299999999999999 10.5199999999999978 7.8900000000000015 Ar
    velocity -0.2157768530587074 -0.3984928923695282 -1.2883443379462558
atom 2.6299999999999999 13.1500000000000004 10.5199999999999996 Ar
    velocity 0.6146049019176701 0.5429577140131524 0.5346780281941351
atom 2.6299999999999999 15.7800000000000011 13.1499999999999950 Ar
    velocity -0.8993166854553806 0.7503389437239296 0.0596374525871034
atom 2.6299999999999999 18.4100000000000037 15.7799999999999994 Ar
    velocity 0.3705100830462810 -1.0340678177428000 0.3648166276659759
atom 2.6299999999999999 21.0400000000000027 18.4100000000000037 Ar
    velocity 0.1059780369050054 0.1630506133292988 -1.1446743374218498
atom 2.6299999999999999 23.6700000000000017 21.0399999999999991 Ar
    velocity -0.1020909437981465 0.2195977705222741 -2.2970437280721159
atom 2.6299999999999999 26.3000000000000007 23.6699999999999946 Ar
    velocity -0.2480554770401543 0.4975239582672023 1.3643019646260945
atom 5.2599999999999998 2.6299999999999994 2.6299999999999999 Ar
    velocity 0.2984970433124232 -0.6206902165692401 0.4704544105409775
atom 5.2599999999999998 5.2600000000000025 5.2600000000000025 Ar
    velocity 0.1697885809265917 -0.0755010485879996 -0.8049363738149444
atom 5.2599999999999998 7.8899999999999997 7.8900000000000006 Ar
    velocity -0.2421300263500916 -0.2233924481785332 0.5364815798721433
atom 5.2599999999999998 10.5199999999999978 10.5200000000000049 Ar
    velocity -1.8035917634044623 -1.9593093437830347 -1.1503706477145126
atom 5.2599999999999998 13.1500000000000004 13.1499999999999968 Ar
    velocity 1.0952743997212222 -0.5404192179238179 -0.7525378234098451
atom 5.2599999999999998 15.7800000000000011 15.7799999999999940 Ar
    velocity 0.2770962459839411 0.2936200132025218 0.5147918551194208
atom 5.2599999999999998 18.4100000000000037 18.4099999999999966 Ar
    velocity 0.4184795523210978 0.7652583769019509 0.2579505391110996
atom 5.2599999999999998 21.0400000000000027 21.0399999999999956 Ar
    velocity -0.3274389294993481 -0.1406055515781983 -0.0367108648096365
atom 5.2599999999999998 23.6700000000000017 23.6699999999999982 Ar
    velocity 0.0618847068571887 1.8383616946162475 0.0273294267123546
atom 5.2599999999999998 26.3000000000000007 -0.0000000000000042 Ar
    velocity 0.2150359742980029 0.4608283163774765 1.1262429516145820
atom 7.8899999999999988 2.6299999999999994 5.2600000000000016 Ar
    velocity 1.1352922505176466 0.5414625897873178 -0.6299733395002500
atom 7.8899999999999988 5.2600000000000025 7.8899999999999988 Ar
    velocity -0.0492578066401249 2.4293263272108794 -0.8479233490590963
atom 7.8899999999999988 7.8899999999999997 10.5199999999999996 Ar
    velocity -0.6495509886701120 0.2199963919971864 1.1507353344129108
atom 7.8899999999999988 10.5199999999999978 13.1499999999999986 Ar
    velocity -1.6760241679682264 -1.0891000859802689 0.0256671622942621
atom 7.8899999999999988 13.1500000000000004 15.7800000000000011 Ar
    velocity 0.8153980279098587 -0.1714179366368319 1.2196431479513923
atom 7.8899999999999988 15.7800000000000011 18.4099999999999930 Ar
    velocity 0.4115118754689738 -0.3973538733381816 0.8882461967542830
atom 7.8899999999999988 18.4100000000000037 21.0399999999999991 Ar
    velocity -0.8643292768514492 1.3175211297009581 0.4837168963711738
atom 7.8899999999999988 21.0400000000000027 23.6699999999999946 Ar
    velocity 0.8039048494122677 -1.7568228369972863 0.5632450305745031
atom 7.8899999999999988 23.6700000000000017 -0.0000000000000015 Ar
    velocity 0.8976117492295909 0.2446085483814959 -2.0569915738666253
atom 7.8899999999999988 26.3000000000000007 2.6299999999999977 Ar
    velocity -1.1109088197304893 -0.7344732742938674 0.0670475660656236
atom 10.5199999999999996 2.6299999999999994 7.8899999999999988 Ar
    velocity 1.2817488410813820 0.1781563301495844 0.6711978206165479
atom 10.5199999999999996 5.2600000000000025 10.5200000000000014 Ar
    velocity -0.2988543048996920 -1.1588021288426076 2.5859731504310668
atom 10.5199999999999996 7.8899999999999997 13.1499999999999968 Ar
    velocity 0.1652667496002664 1.2296823330005751 0.4380363809808236
atom 10.5199999999999996 10.5200000000000014 15.7799999999999976 Ar
    velocity -1.2741823313370744 0.2030113852858372 0.0472749648016399
atom 10.5199999999999996 13.1500000000000004 18.4100000000000001 Ar
    velocity -0.4190159442958674 0.0914725054829015 1.0085813056843735
atom 10.5199999999999996 15.7800000000000011 21.0399999999999956 Ar
    velocity -0.5082347116922463 -0.0203589478438708 0.6238836532204558
atom 10.5199999999999996 18.4100000000000037 23.6699999999999982 Ar
    velocity 0.9957056290367419 -0.1071293063332013 -1.6454195531029601
atom 10.5199999999999996 21.0400000000000027 0.0000000000000005 Ar
    velocity -0.2032202677080155 -1.5752654983430381 -1.3342447444517815
atom 10.5199999999999996 23.6700000000000017 2.6300000000000008 Ar
    velocity -2.0901633044228447 0.1579462025724709 -0.4961517251738303
atom 10.5199999999999996 26.3000000000000007 5.2599999999999945 Ar
    velocity 0.1278754204445313 1.0084716739301165 -0.4857570954217587
atom 13.1499999999999986 2.6299999999999994 10.5199999999999996 Ar
    velocity 0.5824475170751451 0.3173261537283349 1.2207143147876371
atom 13.1499999999999986 5.2599999999999989 13.1499999999999986 Ar
    velocity 0.0986613408601163 0.1924934967485999 -1.5213981799125222
atom 13.1499999999999986 7.8899999999999997 15.7799999999999994 Ar
    velocity 0.2761685360716046 -1.0011836073431322 -0.1729591333387749
atom 13.1499999999999986 10.5200000000000014 18.4099999999999966 Ar
    velocity 1.0837395805795735 -2.3689099356409709 -1.5754252072129031
atom 13.1499999999999986 13.1500000000000004 21.0399999999999991 Ar
    velocity -2.0170324601692005 0.8829167661283257 0.2240356206963163
atom 13.1499999999999986 15.7800000000000011 23.6699999999999946 Ar
    velocity -2.2977791409473340 -1.3312135466963861 -0.9306309627773456
atom 13.1499999999999986 18.4100000000000037 0.0000000000000006 Ar
    velocity -0.5578334898137144 0.0344055322203526 0.9248636749480006
atom 13.1499999999999986 21.0400000000000027 2.6299999999999950 Ar
    velocity 0.1275109412311938 1.2123041263720924 0.5965362619274553
atom 13.1499999999999986 23.6700000000000017 5.2600000000000033 Ar
    velocity 0.5689269096628173 -0.9258131491307829 1.0806697078237664
atom 13.1499999999999986 26.3000000000000043 7.8899999999999970 Ar
    velocity -2.6265050695615351 2.7408614977786590 -1.3069102218513955
atom 15.7799999999999976 2.6299999999999994 13.1499999999999968 Ar
    velocity -0.0791233004235080 0.4014762273592081 -2.9707029810139254
atom 15.7799999999999976 5.2599999999999989 15.7799999999999976 Ar
    velocity -0.7474790640969413 0.2601945508534476 0.3439535369213645
atom 15.7799999999999976 7.8899999999999997 18.4100000000000001 Ar
    velocity 0.7994062294302987 1.6097970749603312 0.8379499119623883
atom 15.7799999999999976 10.5200000000000014 21.0400000000000027 Ar
    velocity -0.1219390218183699 -0.5055437970059169 0.7876674535653256
atom 15.7799999999999976 13.1500000000000004 23.6699999999999982 Ar
    velocity -0.3667091202915962 -0.3780163510863562 -0.2816572285297871
atom 15.7799999999999976 15.7800000000000011 -0.0000000000000020 Ar
    velocity -1.9444882996409731 0.5070424583396215 -0.5248952473292290
atom 15.7799999999999976 18.4100000000000037 2.6300000000000030 Ar
    velocity 0.7416359324250837 0.8296667592631373 -0.3337385744581729
atom 15.7799999999999976 21.0400000000000027 5.2600000000000007 Ar
    velocity -0.0476890629171497 0.5205395886932096 -1.0520932714070690
atom 15.7799999999999976 23.6700000000000017 7.8899999999999997 Ar
    velocity 0.3134250211451788 -0.4634025504428240 0.2828930584747647
atom 15.7799999999999976 26.3000000000000043 10.5199999999999996 Ar
    velocity -0.7373799332306207 -0.4425398216889449 0.9308747896421296
atom 18.4100000000000001 2.6299999999999994 15.7800000000000029 Ar
    velocity 1.2617639741593434 1.3362881229699533 0.2409400504498325
atom 18.4100000000000001 5.2599999999999989 18.4099999999999966 Ar